\* Problem: Unknown *\

Minimize
 obj: - x_14

Subject To
 r_1: - 0.5 x_3 - x_1 <= 0
 r_2: - 0.5 x_3 - x_2 <= 0
 r_3: - 0.5 x_3 + x_1 <= 0
 r_4: - 0.5 x_3 + x_2 <= 0
 r_5: - 0.5 x_6 - x_4 <= 0
 r_6: - 0.5 x_6 - x_5 <= 0
 r_7: - 0.5 x_6 + x_4 <= 0
 r_8: - 0.5 x_6 + x_5 <= 0
 r_9: - 0.5 x_9 - x_7 <= 0
 r_10: - 0.5 x_9 - x_8 <= 0
 r_11: - 0.5 x_9 + x_7 <= 0
 r_12: - 0.5 x_9 + x_8 <= 0
 r_13: - 0.5 x_12 - x_10 <= 0
 r_14: - 0.5 x_12 - x_11 <= 0
 r_15: - 0.5 x_12 + x_10 <= 0
 r_16: - 0.5 x_12 + x_11 <= 0
 r_17: + x_13 <= 100000
 r_18: - x_13 <= 100000
 r_19: + x_14 <= 100000
 r_20: - x_14 <= 100000
 r_21: + x_10 + x_7 + x_4 + x_1 = 0
 r_22: + x_11 + x_8 + x_5 + x_2 = 0
 r_23: + x_12 + x_9 + x_6 + x_3 = 441.45
 r_24: - 0.3 x_11 + 0.2 x_10 - 0.3 x_8 - 0.2 x_7 + 0.3 x_5 + 0.2 x_4
 + 0.3 x_2 - 0.2 x_1 = 0
 r_25: - x_13 - 0.000679578661230037 x_12 + 0.00090610488164005 x_10
 - 0.000679578661230037 x_9 + 0.00090610488164005 x_7
 + 0.000679578661230037 x_6 + 0.00090610488164005 x_4
 + 0.000679578661230037 x_3 + 0.00090610488164005 x_1 = -0
 r_26: - x_14 - 0.000453052440820025 x_12 + 0.00090610488164005 x_11
 + 0.000453052440820025 x_9 + 0.00090610488164005 x_8
 - 0.000453052440820025 x_6 + 0.00090610488164005 x_5
 + 0.000453052440820025 x_3 + 0.00090610488164005 x_2 = -0

Bounds
 x_1 free
 x_2 free
 x_3 free
 x_4 free
 x_5 free
 x_6 free
 x_7 free
 x_8 free
 x_9 free
 x_10 free
 x_11 free
 x_12 free
 x_13 free
 x_14 free

End
